(set-info :origin "SVCOMP13 benchmarks generated by Arie Gurfinkel")
(set-info :status sat)
(set-logic HORN)
(declare-fun cp-rel-entry () Bool)
(declare-fun cp-rel-bb1.i.i43.i.i () Bool)
(declare-fun cp-rel-bb1.i.i (Real Real Real) Bool)
(assert |cp-rel-entry|)
(assert (forall ((?A Real) (?B Real) (?C Real) (?D Bool) )(let (($x386529 (and |cp-rel-entry| (<= ?C 0.0) (>= ?B 1.0) (<= ?B 1.0) (>= ?A 0.0) (<= ?A 0.0) (= ?D true) (>= ?C 0.0))))
(=> $x386529 (|cp-rel-bb1.i.i| ?A ?B ?C))))
)
(assert (forall ((?A Real) (?B Real) (?C Real) (?D Real) (?E Real) (?F Real) (?G Bool) (?H Bool) (?I Bool) (?J Bool) (?K Bool) (?L Bool) (?M Real) (?N Real) (?O Bool) (?P Bool) (?Q Bool) (?R Bool) (?S Bool) (?T Bool) (?U Real) (?V Real) (?W Bool) (?X Bool) (?Y Bool) (?Z Bool) (?A1 Bool) (?B1 Bool) (?C1 Bool) (?D1 Bool) (?E1 Bool) (?F1 Bool) (?G1 Bool) (?H1 Bool) (?I1 Bool) (?J1 Bool) (?K1 Real) (?L1 Real) (?M1 Real) (?N1 Bool) (?O1 Bool) (?P1 Real) (?Q1 Bool) (?R1 Bool) (?S1 Real) (?T1 Bool) (?U1 Real) (?V1 Real) (?W1 Bool) (?X1 Bool) (?Y1 Real) (?Z1 Bool) (?A2 Bool) (?B2 Bool) (?C2 Bool) (?D2 Bool) )(let (($x438900 (|cp-rel-bb1.i.i| ?D ?E ?F)))
(let (($x364524 (= ?R1 (or ?D2 ?C2))))
(let (($x30142 (or (not ?G) (and ?H ?I (not ?J)))))
(let (($x864767 (or (not ?G) ?I)))
(let (($x67017 (not ?K)))
(let (($x505189 (or $x67017 (and ?G ?L (<= ?M ?N) (>= ?M ?N)) (and ?H ?O ?J (<= ?M ?B) (>= ?M ?B)))))
(let (($x421539 (or $x67017 (and ?L (not ?O)) (and ?O (not ?L)))))
(let (($x868078 (or (not ?P) (and ?K ?Q (not ?R)))))
(let (($x545028 (or (not ?P) ?Q)))
(let (($x398310 (not ?S)))
(let (($x402099 (or $x398310 (and ?P ?T (<= ?U ?V) (>= ?U ?V)) (and ?K ?W ?R (<= ?U ?A) (>= ?U ?A)))))
(let (($x414835 (or $x398310 (and ?T (not ?W)) (and ?W (not ?T)))))
(let (($x505354 (or (not ?X) (and ?S ?Y ?Z))))
(let (($x856653 (or (not ?X) ?Y)))
(let (($x343056 (or (not ?A1) (and ?S ?B1 (not ?Z)))))
(let (($x259428 (or (not ?A1) ?B1)))
(let (($x342538 (or (not ?C1) (and ?X ?D1 ?E1))))
(let (($x540515 (or (not ?C1) ?D1)))
(let (($x357239 (or (not ?F1) (and ?A1 ?G1 ?H1))))
(let (($x503191 (or (not ?F1) ?G1)))
(let (($x64478 (>= ?K1 ?P1)))
(let (($x552460 (<= ?K1 ?P1)))
(let (($x251913 (and ?A1 ?Q1 (not ?H1) $x552460 $x64478 (<= ?L1 0.0) (>= ?L1 0.0))))
(let (($x114915 (>= ?K1 ?M)))
(let (($x283401 (<= ?K1 ?M)))
(let (($x289414 (not ?I1)))
(let (($x291974 (or $x289414 (and ?C1 ?J1 $x283401 $x114915 (<= ?L1 ?M1) (>= ?L1 ?M1)) (and ?X ?N1 (not ?E1) $x283401 $x114915 (<= ?L1 ?C) (>= ?L1 ?C)) (and ?F1 ?O1 $x552460 $x64478 (<= ?L1 ?C) (>= ?L1 ?C)) $x251913)))
(let (($x413838 (or $x289414 (and ?J1 (not ?N1) (not ?O1) (not ?Q1)) (and ?N1 (not ?J1) (not ?O1) (not ?Q1)) (and ?O1 (not ?J1) (not ?N1) (not ?Q1)) (and ?Q1 (not ?J1) (not ?N1) (not ?O1)))))
(let (($x54957 (= ?I1 true)))
(let (($x850129 (= ?R1 true)))
(let (($x594114 (= ?J (= ?S1 0.0))))
(let (($x813354 (= ?U1 (ite ?T1 1.0 0.0))))
(let (($x298685 (= ?R (= ?V1 0.0))))
(let (($x293572 (= ?V (ite ?W1 1.0 0.0))))
(let (($x341615 (= ?E1 (not (<= ?M 1.0)))))
(let (($x334735 (= ?X1 (not (<= ?M 0.0)))))
(let (($x153700 (= ?Y1 (+ (~ 1.0) ?M))))
(let (($x419357 (= ?P1 (ite ?X1 ?Y1 ?M))))
(let (($x637402 (= ?U 0.0)))
(let (($x346019 (= ?Z1 $x637402)))
(let (($x523728 (= ?A2 (= ?P1 0.0))))
(let (($x888772 (= ?H1 (and ?Z1 ?A2))))
(let (($x235037 (= ?B2 $x637402)))
(let (($x251421 (= ?C2 $x637402)))
(let (($x149937 (= ?D2 (= ?L1 0.0))))
(let (($x261165 (and (|cp-rel-bb1.i.i| ?A ?B ?C) $x149937 $x251421 (= ?M1 (ite ?B2 1.0 ?C)) $x235037 $x888772 $x523728 $x346019 $x419357 $x153700 $x334735 $x341615 (= ?Z (= ?C 0.0)) $x293572 (= ?W1 (= ?A 0.0)) $x298685 (= ?N (+ ?U1 ?B)) $x813354 (= ?T1 (not (<= 2.0 ?B))) $x594114 (>= ?F ?L1) (<= ?F ?L1) (>= ?E ?K1) (<= ?E ?K1) (>= ?D ?U) (<= ?D ?U) $x850129 $x54957 $x413838 $x291974 $x503191 $x357239 $x540515 $x342538 $x259428 $x343056 $x856653 $x505354 $x414835 $x402099 $x545028 $x868078 $x421539 $x505189 $x864767 $x30142 $x364524)))
(=> $x261165 $x438900))))))))))))))))))))))))))))))))))))))))))))))))
)
(assert (forall ((?A Real) (?B Real) (?C Real) (?D Bool) (?E Bool) (?F Bool) (?G Bool) (?H Bool) (?I Bool) (?J Real) (?K Real) (?L Bool) (?M Bool) (?N Bool) (?O Bool) (?P Bool) (?Q Bool) (?R Real) (?S Real) (?T Bool) (?U Bool) (?V Bool) (?W Bool) (?X Bool) (?Y Bool) (?Z Bool) (?A1 Bool) (?B1 Bool) (?C1 Bool) (?D1 Bool) (?E1 Bool) (?F1 Bool) (?G1 Bool) (?H1 Real) (?I1 Real) (?J1 Real) (?K1 Bool) (?L1 Bool) (?M1 Real) (?N1 Bool) (?O1 Bool) (?P1 Real) (?Q1 Bool) (?R1 Real) (?S1 Real) (?T1 Bool) (?U1 Bool) (?V1 Real) (?W1 Bool) (?X1 Bool) (?Y1 Bool) (?Z1 Bool) (?A2 Bool) )(let (($x364524 (= ?O1 (or ?A2 ?Z1))))
(let (($x30142 (or (not ?D) (and ?E ?F (not ?G)))))
(let (($x864767 (or (not ?D) ?F)))
(let (($x67017 (not ?H)))
(let (($x585066 (or $x67017 (and ?D ?I (<= ?J ?K) (>= ?J ?K)) (and ?E ?L ?G (<= ?J ?B) (>= ?J ?B)))))
(let (($x421539 (or $x67017 (and ?I (not ?L)) (and ?L (not ?I)))))
(let (($x868078 (or (not ?M) (and ?H ?N (not ?O)))))
(let (($x545028 (or (not ?M) ?N)))
(let (($x398310 (not ?P)))
(let (($x488023 (or $x398310 (and ?M ?Q (<= ?R ?S) (>= ?R ?S)) (and ?H ?T ?O (<= ?R ?A) (>= ?R ?A)))))
(let (($x414835 (or $x398310 (and ?Q (not ?T)) (and ?T (not ?Q)))))
(let (($x505354 (or (not ?U) (and ?P ?V ?W))))
(let (($x856653 (or (not ?U) ?V)))
(let (($x343056 (or (not ?X) (and ?P ?Y (not ?W)))))
(let (($x259428 (or (not ?X) ?Y)))
(let (($x342538 (or (not ?Z) (and ?U ?A1 ?B1))))
(let (($x540515 (or (not ?Z) ?A1)))
(let (($x357239 (or (not ?C1) (and ?X ?D1 ?E1))))
(let (($x503191 (or (not ?C1) ?D1)))
(let (($x64478 (>= ?H1 ?M1)))
(let (($x552460 (<= ?H1 ?M1)))
(let (($x251913 (and ?X ?N1 (not ?E1) $x552460 $x64478 (<= ?I1 0.0) (>= ?I1 0.0))))
(let (($x114915 (>= ?H1 ?J)))
(let (($x283401 (<= ?H1 ?J)))
(let (($x289414 (not ?F1)))
(let (($x644574 (or $x289414 (and ?Z ?G1 $x283401 $x114915 (<= ?I1 ?J1) (>= ?I1 ?J1)) (and ?U ?K1 (not ?B1) $x283401 $x114915 (<= ?I1 ?C) (>= ?I1 ?C)) (and ?C1 ?L1 $x552460 $x64478 (<= ?I1 ?C) (>= ?I1 ?C)) $x251913)))
(let (($x413838 (or $x289414 (and ?G1 (not ?K1) (not ?L1) (not ?N1)) (and ?K1 (not ?G1) (not ?L1) (not ?N1)) (and ?L1 (not ?G1) (not ?K1) (not ?N1)) (and ?N1 (not ?G1) (not ?K1) (not ?L1)))))
(let (($x54957 (= ?F1 true)))
(let (($x594114 (= ?G (= ?P1 0.0))))
(let (($x813354 (= ?R1 (ite ?Q1 1.0 0.0))))
(let (($x298685 (= ?O (= ?S1 0.0))))
(let (($x293572 (= ?S (ite ?T1 1.0 0.0))))
(let (($x341615 (= ?B1 (not (<= ?J 1.0)))))
(let (($x334735 (= ?U1 (not (<= ?J 0.0)))))
(let (($x153700 (= ?V1 (+ (~ 1.0) ?J))))
(let (($x419357 (= ?M1 (ite ?U1 ?V1 ?J))))
(let (($x637402 (= ?R 0.0)))
(let (($x346019 (= ?W1 $x637402)))
(let (($x523728 (= ?X1 (= ?M1 0.0))))
(let (($x888772 (= ?E1 (and ?W1 ?X1))))
(let (($x235037 (= ?Y1 $x637402)))
(let (($x251421 (= ?Z1 $x637402)))
(let (($x149937 (= ?A2 (= ?I1 0.0))))
(let (($x438900 (|cp-rel-bb1.i.i| ?A ?B ?C)))
(let (($x567809 (and $x438900 $x149937 $x251421 (= ?J1 (ite ?Y1 1.0 ?C)) $x235037 $x888772 $x523728 $x346019 $x419357 $x153700 $x334735 $x341615 (= ?W (= ?C 0.0)) $x293572 (= ?T1 (= ?A 0.0)) $x298685 (= ?K (+ ?R1 ?B)) $x813354 (= ?Q1 (not (<= 2.0 ?B))) $x594114 (not (= ?O1 true)) $x54957 $x413838 $x644574 $x503191 $x357239 $x540515 $x342538 $x259428 $x343056 $x856653 $x505354 $x414835 $x488023 $x545028 $x868078 $x421539 $x585066 $x864767 $x30142 $x364524)))
(=> $x567809 |cp-rel-bb1.i.i43.i.i|)))))))))))))))))))))))))))))))))))))))))))))))
)
(assert (not cp-rel-bb1.i.i43.i.i))
(check-sat)
